clingo version 5.4.0
Reading from merger/Marcus/merge.lp ...
Solving...
UNSATISFIABLE

Models       : 0
Calls        : 1
Time         : 13.283s (Solving: 0.00s 1st Model: 0.00s Unsat: 0.00s)
CPU Time     : 13.221s
